c *********************************
c * Circuit generated by BenCGen
c *
c * RippleCarryAdder_108_108_108_InOutT
c *
c * Ports with 1 gate(s): 1
c * Ports with 2 gate(s): 541
c * Total gates: 542
c *********************************
p cnf 758 1841
1 327 0
-1 -327 0
1 -326 0
327 -326 0
-1 -327 326 0
1 109 -329 0
-1 109 329 0
1 -109 329 0
-1 -109 -329 0
329 326 -217 0
-329 326 217 0
329 -326 217 0
-329 -326 -217 0
326 -330 0
329 -330 0
-326 -329 330 0
109 -331 0
1 -331 0
-109 -1 331 0
-330 328 0
-331 328 0
330 331 -328 0
2 110 -333 0
-2 110 333 0
2 -110 333 0
-2 -110 -333 0
333 328 -218 0
-333 328 218 0
333 -328 218 0
-333 -328 -218 0
328 -334 0
333 -334 0
-328 -333 334 0
110 -335 0
2 -335 0
-110 -2 335 0
-334 332 0
-335 332 0
334 335 -332 0
3 111 -337 0
-3 111 337 0
3 -111 337 0
-3 -111 -337 0
337 332 -219 0
-337 332 219 0
337 -332 219 0
-337 -332 -219 0
332 -338 0
337 -338 0
-332 -337 338 0
111 -339 0
3 -339 0
-111 -3 339 0
-338 336 0
-339 336 0
338 339 -336 0
4 112 -341 0
-4 112 341 0
4 -112 341 0
-4 -112 -341 0
341 336 -220 0
-341 336 220 0
341 -336 220 0
-341 -336 -220 0
336 -342 0
341 -342 0
-336 -341 342 0
112 -343 0
4 -343 0
-112 -4 343 0
-342 340 0
-343 340 0
342 343 -340 0
5 113 -345 0
-5 113 345 0
5 -113 345 0
-5 -113 -345 0
345 340 -221 0
-345 340 221 0
345 -340 221 0
-345 -340 -221 0
340 -346 0
345 -346 0
-340 -345 346 0
113 -347 0
5 -347 0
-113 -5 347 0
-346 344 0
-347 344 0
346 347 -344 0
6 114 -349 0
-6 114 349 0
6 -114 349 0
-6 -114 -349 0
349 344 -222 0
-349 344 222 0
349 -344 222 0
-349 -344 -222 0
344 -350 0
349 -350 0
-344 -349 350 0
114 -351 0
6 -351 0
-114 -6 351 0
-350 348 0
-351 348 0
350 351 -348 0
7 115 -353 0
-7 115 353 0
7 -115 353 0
-7 -115 -353 0
353 348 -223 0
-353 348 223 0
353 -348 223 0
-353 -348 -223 0
348 -354 0
353 -354 0
-348 -353 354 0
115 -355 0
7 -355 0
-115 -7 355 0
-354 352 0
-355 352 0
354 355 -352 0
8 116 -357 0
-8 116 357 0
8 -116 357 0
-8 -116 -357 0
357 352 -224 0
-357 352 224 0
357 -352 224 0
-357 -352 -224 0
352 -358 0
357 -358 0
-352 -357 358 0
116 -359 0
8 -359 0
-116 -8 359 0
-358 356 0
-359 356 0
358 359 -356 0
9 117 -361 0
-9 117 361 0
9 -117 361 0
-9 -117 -361 0
361 356 -225 0
-361 356 225 0
361 -356 225 0
-361 -356 -225 0
356 -362 0
361 -362 0
-356 -361 362 0
117 -363 0
9 -363 0
-117 -9 363 0
-362 360 0
-363 360 0
362 363 -360 0
10 118 -365 0
-10 118 365 0
10 -118 365 0
-10 -118 -365 0
365 360 -226 0
-365 360 226 0
365 -360 226 0
-365 -360 -226 0
360 -366 0
365 -366 0
-360 -365 366 0
118 -367 0
10 -367 0
-118 -10 367 0
-366 364 0
-367 364 0
366 367 -364 0
11 119 -369 0
-11 119 369 0
11 -119 369 0
-11 -119 -369 0
369 364 -227 0
-369 364 227 0
369 -364 227 0
-369 -364 -227 0
364 -370 0
369 -370 0
-364 -369 370 0
119 -371 0
11 -371 0
-119 -11 371 0
-370 368 0
-371 368 0
370 371 -368 0
12 120 -373 0
-12 120 373 0
12 -120 373 0
-12 -120 -373 0
373 368 -228 0
-373 368 228 0
373 -368 228 0
-373 -368 -228 0
368 -374 0
373 -374 0
-368 -373 374 0
120 -375 0
12 -375 0
-120 -12 375 0
-374 372 0
-375 372 0
374 375 -372 0
13 121 -377 0
-13 121 377 0
13 -121 377 0
-13 -121 -377 0
377 372 -229 0
-377 372 229 0
377 -372 229 0
-377 -372 -229 0
372 -378 0
377 -378 0
-372 -377 378 0
121 -379 0
13 -379 0
-121 -13 379 0
-378 376 0
-379 376 0
378 379 -376 0
14 122 -381 0
-14 122 381 0
14 -122 381 0
-14 -122 -381 0
381 376 -230 0
-381 376 230 0
381 -376 230 0
-381 -376 -230 0
376 -382 0
381 -382 0
-376 -381 382 0
122 -383 0
14 -383 0
-122 -14 383 0
-382 380 0
-383 380 0
382 383 -380 0
15 123 -385 0
-15 123 385 0
15 -123 385 0
-15 -123 -385 0
385 380 -231 0
-385 380 231 0
385 -380 231 0
-385 -380 -231 0
380 -386 0
385 -386 0
-380 -385 386 0
123 -387 0
15 -387 0
-123 -15 387 0
-386 384 0
-387 384 0
386 387 -384 0
16 124 -389 0
-16 124 389 0
16 -124 389 0
-16 -124 -389 0
389 384 -232 0
-389 384 232 0
389 -384 232 0
-389 -384 -232 0
384 -390 0
389 -390 0
-384 -389 390 0
124 -391 0
16 -391 0
-124 -16 391 0
-390 388 0
-391 388 0
390 391 -388 0
17 125 -393 0
-17 125 393 0
17 -125 393 0
-17 -125 -393 0
393 388 -233 0
-393 388 233 0
393 -388 233 0
-393 -388 -233 0
388 -394 0
393 -394 0
-388 -393 394 0
125 -395 0
17 -395 0
-125 -17 395 0
-394 392 0
-395 392 0
394 395 -392 0
18 126 -397 0
-18 126 397 0
18 -126 397 0
-18 -126 -397 0
397 392 -234 0
-397 392 234 0
397 -392 234 0
-397 -392 -234 0
392 -398 0
397 -398 0
-392 -397 398 0
126 -399 0
18 -399 0
-126 -18 399 0
-398 396 0
-399 396 0
398 399 -396 0
19 127 -401 0
-19 127 401 0
19 -127 401 0
-19 -127 -401 0
401 396 -235 0
-401 396 235 0
401 -396 235 0
-401 -396 -235 0
396 -402 0
401 -402 0
-396 -401 402 0
127 -403 0
19 -403 0
-127 -19 403 0
-402 400 0
-403 400 0
402 403 -400 0
20 128 -405 0
-20 128 405 0
20 -128 405 0
-20 -128 -405 0
405 400 -236 0
-405 400 236 0
405 -400 236 0
-405 -400 -236 0
400 -406 0
405 -406 0
-400 -405 406 0
128 -407 0
20 -407 0
-128 -20 407 0
-406 404 0
-407 404 0
406 407 -404 0
21 129 -409 0
-21 129 409 0
21 -129 409 0
-21 -129 -409 0
409 404 -237 0
-409 404 237 0
409 -404 237 0
-409 -404 -237 0
404 -410 0
409 -410 0
-404 -409 410 0
129 -411 0
21 -411 0
-129 -21 411 0
-410 408 0
-411 408 0
410 411 -408 0
22 130 -413 0
-22 130 413 0
22 -130 413 0
-22 -130 -413 0
413 408 -238 0
-413 408 238 0
413 -408 238 0
-413 -408 -238 0
408 -414 0
413 -414 0
-408 -413 414 0
130 -415 0
22 -415 0
-130 -22 415 0
-414 412 0
-415 412 0
414 415 -412 0
23 131 -417 0
-23 131 417 0
23 -131 417 0
-23 -131 -417 0
417 412 -239 0
-417 412 239 0
417 -412 239 0
-417 -412 -239 0
412 -418 0
417 -418 0
-412 -417 418 0
131 -419 0
23 -419 0
-131 -23 419 0
-418 416 0
-419 416 0
418 419 -416 0
24 132 -421 0
-24 132 421 0
24 -132 421 0
-24 -132 -421 0
421 416 -240 0
-421 416 240 0
421 -416 240 0
-421 -416 -240 0
416 -422 0
421 -422 0
-416 -421 422 0
132 -423 0
24 -423 0
-132 -24 423 0
-422 420 0
-423 420 0
422 423 -420 0
25 133 -425 0
-25 133 425 0
25 -133 425 0
-25 -133 -425 0
425 420 -241 0
-425 420 241 0
425 -420 241 0
-425 -420 -241 0
420 -426 0
425 -426 0
-420 -425 426 0
133 -427 0
25 -427 0
-133 -25 427 0
-426 424 0
-427 424 0
426 427 -424 0
26 134 -429 0
-26 134 429 0
26 -134 429 0
-26 -134 -429 0
429 424 -242 0
-429 424 242 0
429 -424 242 0
-429 -424 -242 0
424 -430 0
429 -430 0
-424 -429 430 0
134 -431 0
26 -431 0
-134 -26 431 0
-430 428 0
-431 428 0
430 431 -428 0
27 135 -433 0
-27 135 433 0
27 -135 433 0
-27 -135 -433 0
433 428 -243 0
-433 428 243 0
433 -428 243 0
-433 -428 -243 0
428 -434 0
433 -434 0
-428 -433 434 0
135 -435 0
27 -435 0
-135 -27 435 0
-434 432 0
-435 432 0
434 435 -432 0
28 136 -437 0
-28 136 437 0
28 -136 437 0
-28 -136 -437 0
437 432 -244 0
-437 432 244 0
437 -432 244 0
-437 -432 -244 0
432 -438 0
437 -438 0
-432 -437 438 0
136 -439 0
28 -439 0
-136 -28 439 0
-438 436 0
-439 436 0
438 439 -436 0
29 137 -441 0
-29 137 441 0
29 -137 441 0
-29 -137 -441 0
441 436 -245 0
-441 436 245 0
441 -436 245 0
-441 -436 -245 0
436 -442 0
441 -442 0
-436 -441 442 0
137 -443 0
29 -443 0
-137 -29 443 0
-442 440 0
-443 440 0
442 443 -440 0
30 138 -445 0
-30 138 445 0
30 -138 445 0
-30 -138 -445 0
445 440 -246 0
-445 440 246 0
445 -440 246 0
-445 -440 -246 0
440 -446 0
445 -446 0
-440 -445 446 0
138 -447 0
30 -447 0
-138 -30 447 0
-446 444 0
-447 444 0
446 447 -444 0
31 139 -449 0
-31 139 449 0
31 -139 449 0
-31 -139 -449 0
449 444 -247 0
-449 444 247 0
449 -444 247 0
-449 -444 -247 0
444 -450 0
449 -450 0
-444 -449 450 0
139 -451 0
31 -451 0
-139 -31 451 0
-450 448 0
-451 448 0
450 451 -448 0
32 140 -453 0
-32 140 453 0
32 -140 453 0
-32 -140 -453 0
453 448 -248 0
-453 448 248 0
453 -448 248 0
-453 -448 -248 0
448 -454 0
453 -454 0
-448 -453 454 0
140 -455 0
32 -455 0
-140 -32 455 0
-454 452 0
-455 452 0
454 455 -452 0
33 141 -457 0
-33 141 457 0
33 -141 457 0
-33 -141 -457 0
457 452 -249 0
-457 452 249 0
457 -452 249 0
-457 -452 -249 0
452 -458 0
457 -458 0
-452 -457 458 0
141 -459 0
33 -459 0
-141 -33 459 0
-458 456 0
-459 456 0
458 459 -456 0
34 142 -461 0
-34 142 461 0
34 -142 461 0
-34 -142 -461 0
461 456 -250 0
-461 456 250 0
461 -456 250 0
-461 -456 -250 0
456 -462 0
461 -462 0
-456 -461 462 0
142 -463 0
34 -463 0
-142 -34 463 0
-462 460 0
-463 460 0
462 463 -460 0
35 143 -465 0
-35 143 465 0
35 -143 465 0
-35 -143 -465 0
465 460 -251 0
-465 460 251 0
465 -460 251 0
-465 -460 -251 0
460 -466 0
465 -466 0
-460 -465 466 0
143 -467 0
35 -467 0
-143 -35 467 0
-466 464 0
-467 464 0
466 467 -464 0
36 144 -469 0
-36 144 469 0
36 -144 469 0
-36 -144 -469 0
469 464 -252 0
-469 464 252 0
469 -464 252 0
-469 -464 -252 0
464 -470 0
469 -470 0
-464 -469 470 0
144 -471 0
36 -471 0
-144 -36 471 0
-470 468 0
-471 468 0
470 471 -468 0
37 145 -473 0
-37 145 473 0
37 -145 473 0
-37 -145 -473 0
473 468 -253 0
-473 468 253 0
473 -468 253 0
-473 -468 -253 0
468 -474 0
473 -474 0
-468 -473 474 0
145 -475 0
37 -475 0
-145 -37 475 0
-474 472 0
-475 472 0
474 475 -472 0
38 146 -477 0
-38 146 477 0
38 -146 477 0
-38 -146 -477 0
477 472 -254 0
-477 472 254 0
477 -472 254 0
-477 -472 -254 0
472 -478 0
477 -478 0
-472 -477 478 0
146 -479 0
38 -479 0
-146 -38 479 0
-478 476 0
-479 476 0
478 479 -476 0
39 147 -481 0
-39 147 481 0
39 -147 481 0
-39 -147 -481 0
481 476 -255 0
-481 476 255 0
481 -476 255 0
-481 -476 -255 0
476 -482 0
481 -482 0
-476 -481 482 0
147 -483 0
39 -483 0
-147 -39 483 0
-482 480 0
-483 480 0
482 483 -480 0
40 148 -485 0
-40 148 485 0
40 -148 485 0
-40 -148 -485 0
485 480 -256 0
-485 480 256 0
485 -480 256 0
-485 -480 -256 0
480 -486 0
485 -486 0
-480 -485 486 0
148 -487 0
40 -487 0
-148 -40 487 0
-486 484 0
-487 484 0
486 487 -484 0
41 149 -489 0
-41 149 489 0
41 -149 489 0
-41 -149 -489 0
489 484 -257 0
-489 484 257 0
489 -484 257 0
-489 -484 -257 0
484 -490 0
489 -490 0
-484 -489 490 0
149 -491 0
41 -491 0
-149 -41 491 0
-490 488 0
-491 488 0
490 491 -488 0
42 150 -493 0
-42 150 493 0
42 -150 493 0
-42 -150 -493 0
493 488 -258 0
-493 488 258 0
493 -488 258 0
-493 -488 -258 0
488 -494 0
493 -494 0
-488 -493 494 0
150 -495 0
42 -495 0
-150 -42 495 0
-494 492 0
-495 492 0
494 495 -492 0
43 151 -497 0
-43 151 497 0
43 -151 497 0
-43 -151 -497 0
497 492 -259 0
-497 492 259 0
497 -492 259 0
-497 -492 -259 0
492 -498 0
497 -498 0
-492 -497 498 0
151 -499 0
43 -499 0
-151 -43 499 0
-498 496 0
-499 496 0
498 499 -496 0
44 152 -501 0
-44 152 501 0
44 -152 501 0
-44 -152 -501 0
501 496 -260 0
-501 496 260 0
501 -496 260 0
-501 -496 -260 0
496 -502 0
501 -502 0
-496 -501 502 0
152 -503 0
44 -503 0
-152 -44 503 0
-502 500 0
-503 500 0
502 503 -500 0
45 153 -505 0
-45 153 505 0
45 -153 505 0
-45 -153 -505 0
505 500 -261 0
-505 500 261 0
505 -500 261 0
-505 -500 -261 0
500 -506 0
505 -506 0
-500 -505 506 0
153 -507 0
45 -507 0
-153 -45 507 0
-506 504 0
-507 504 0
506 507 -504 0
46 154 -509 0
-46 154 509 0
46 -154 509 0
-46 -154 -509 0
509 504 -262 0
-509 504 262 0
509 -504 262 0
-509 -504 -262 0
504 -510 0
509 -510 0
-504 -509 510 0
154 -511 0
46 -511 0
-154 -46 511 0
-510 508 0
-511 508 0
510 511 -508 0
47 155 -513 0
-47 155 513 0
47 -155 513 0
-47 -155 -513 0
513 508 -263 0
-513 508 263 0
513 -508 263 0
-513 -508 -263 0
508 -514 0
513 -514 0
-508 -513 514 0
155 -515 0
47 -515 0
-155 -47 515 0
-514 512 0
-515 512 0
514 515 -512 0
48 156 -517 0
-48 156 517 0
48 -156 517 0
-48 -156 -517 0
517 512 -264 0
-517 512 264 0
517 -512 264 0
-517 -512 -264 0
512 -518 0
517 -518 0
-512 -517 518 0
156 -519 0
48 -519 0
-156 -48 519 0
-518 516 0
-519 516 0
518 519 -516 0
49 157 -521 0
-49 157 521 0
49 -157 521 0
-49 -157 -521 0
521 516 -265 0
-521 516 265 0
521 -516 265 0
-521 -516 -265 0
516 -522 0
521 -522 0
-516 -521 522 0
157 -523 0
49 -523 0
-157 -49 523 0
-522 520 0
-523 520 0
522 523 -520 0
50 158 -525 0
-50 158 525 0
50 -158 525 0
-50 -158 -525 0
525 520 -266 0
-525 520 266 0
525 -520 266 0
-525 -520 -266 0
520 -526 0
525 -526 0
-520 -525 526 0
158 -527 0
50 -527 0
-158 -50 527 0
-526 524 0
-527 524 0
526 527 -524 0
51 159 -529 0
-51 159 529 0
51 -159 529 0
-51 -159 -529 0
529 524 -267 0
-529 524 267 0
529 -524 267 0
-529 -524 -267 0
524 -530 0
529 -530 0
-524 -529 530 0
159 -531 0
51 -531 0
-159 -51 531 0
-530 528 0
-531 528 0
530 531 -528 0
52 160 -533 0
-52 160 533 0
52 -160 533 0
-52 -160 -533 0
533 528 -268 0
-533 528 268 0
533 -528 268 0
-533 -528 -268 0
528 -534 0
533 -534 0
-528 -533 534 0
160 -535 0
52 -535 0
-160 -52 535 0
-534 532 0
-535 532 0
534 535 -532 0
53 161 -537 0
-53 161 537 0
53 -161 537 0
-53 -161 -537 0
537 532 -269 0
-537 532 269 0
537 -532 269 0
-537 -532 -269 0
532 -538 0
537 -538 0
-532 -537 538 0
161 -539 0
53 -539 0
-161 -53 539 0
-538 536 0
-539 536 0
538 539 -536 0
54 162 -541 0
-54 162 541 0
54 -162 541 0
-54 -162 -541 0
541 536 -270 0
-541 536 270 0
541 -536 270 0
-541 -536 -270 0
536 -542 0
541 -542 0
-536 -541 542 0
162 -543 0
54 -543 0
-162 -54 543 0
-542 540 0
-543 540 0
542 543 -540 0
55 163 -545 0
-55 163 545 0
55 -163 545 0
-55 -163 -545 0
545 540 -271 0
-545 540 271 0
545 -540 271 0
-545 -540 -271 0
540 -546 0
545 -546 0
-540 -545 546 0
163 -547 0
55 -547 0
-163 -55 547 0
-546 544 0
-547 544 0
546 547 -544 0
56 164 -549 0
-56 164 549 0
56 -164 549 0
-56 -164 -549 0
549 544 -272 0
-549 544 272 0
549 -544 272 0
-549 -544 -272 0
544 -550 0
549 -550 0
-544 -549 550 0
164 -551 0
56 -551 0
-164 -56 551 0
-550 548 0
-551 548 0
550 551 -548 0
57 165 -553 0
-57 165 553 0
57 -165 553 0
-57 -165 -553 0
553 548 -273 0
-553 548 273 0
553 -548 273 0
-553 -548 -273 0
548 -554 0
553 -554 0
-548 -553 554 0
165 -555 0
57 -555 0
-165 -57 555 0
-554 552 0
-555 552 0
554 555 -552 0
58 166 -557 0
-58 166 557 0
58 -166 557 0
-58 -166 -557 0
557 552 -274 0
-557 552 274 0
557 -552 274 0
-557 -552 -274 0
552 -558 0
557 -558 0
-552 -557 558 0
166 -559 0
58 -559 0
-166 -58 559 0
-558 556 0
-559 556 0
558 559 -556 0
59 167 -561 0
-59 167 561 0
59 -167 561 0
-59 -167 -561 0
561 556 -275 0
-561 556 275 0
561 -556 275 0
-561 -556 -275 0
556 -562 0
561 -562 0
-556 -561 562 0
167 -563 0
59 -563 0
-167 -59 563 0
-562 560 0
-563 560 0
562 563 -560 0
60 168 -565 0
-60 168 565 0
60 -168 565 0
-60 -168 -565 0
565 560 -276 0
-565 560 276 0
565 -560 276 0
-565 -560 -276 0
560 -566 0
565 -566 0
-560 -565 566 0
168 -567 0
60 -567 0
-168 -60 567 0
-566 564 0
-567 564 0
566 567 -564 0
61 169 -569 0
-61 169 569 0
61 -169 569 0
-61 -169 -569 0
569 564 -277 0
-569 564 277 0
569 -564 277 0
-569 -564 -277 0
564 -570 0
569 -570 0
-564 -569 570 0
169 -571 0
61 -571 0
-169 -61 571 0
-570 568 0
-571 568 0
570 571 -568 0
62 170 -573 0
-62 170 573 0
62 -170 573 0
-62 -170 -573 0
573 568 -278 0
-573 568 278 0
573 -568 278 0
-573 -568 -278 0
568 -574 0
573 -574 0
-568 -573 574 0
170 -575 0
62 -575 0
-170 -62 575 0
-574 572 0
-575 572 0
574 575 -572 0
63 171 -577 0
-63 171 577 0
63 -171 577 0
-63 -171 -577 0
577 572 -279 0
-577 572 279 0
577 -572 279 0
-577 -572 -279 0
572 -578 0
577 -578 0
-572 -577 578 0
171 -579 0
63 -579 0
-171 -63 579 0
-578 576 0
-579 576 0
578 579 -576 0
64 172 -581 0
-64 172 581 0
64 -172 581 0
-64 -172 -581 0
581 576 -280 0
-581 576 280 0
581 -576 280 0
-581 -576 -280 0
576 -582 0
581 -582 0
-576 -581 582 0
172 -583 0
64 -583 0
-172 -64 583 0
-582 580 0
-583 580 0
582 583 -580 0
65 173 -585 0
-65 173 585 0
65 -173 585 0
-65 -173 -585 0
585 580 -281 0
-585 580 281 0
585 -580 281 0
-585 -580 -281 0
580 -586 0
585 -586 0
-580 -585 586 0
173 -587 0
65 -587 0
-173 -65 587 0
-586 584 0
-587 584 0
586 587 -584 0
66 174 -589 0
-66 174 589 0
66 -174 589 0
-66 -174 -589 0
589 584 -282 0
-589 584 282 0
589 -584 282 0
-589 -584 -282 0
584 -590 0
589 -590 0
-584 -589 590 0
174 -591 0
66 -591 0
-174 -66 591 0
-590 588 0
-591 588 0
590 591 -588 0
67 175 -593 0
-67 175 593 0
67 -175 593 0
-67 -175 -593 0
593 588 -283 0
-593 588 283 0
593 -588 283 0
-593 -588 -283 0
588 -594 0
593 -594 0
-588 -593 594 0
175 -595 0
67 -595 0
-175 -67 595 0
-594 592 0
-595 592 0
594 595 -592 0
68 176 -597 0
-68 176 597 0
68 -176 597 0
-68 -176 -597 0
597 592 -284 0
-597 592 284 0
597 -592 284 0
-597 -592 -284 0
592 -598 0
597 -598 0
-592 -597 598 0
176 -599 0
68 -599 0
-176 -68 599 0
-598 596 0
-599 596 0
598 599 -596 0
69 177 -601 0
-69 177 601 0
69 -177 601 0
-69 -177 -601 0
601 596 -285 0
-601 596 285 0
601 -596 285 0
-601 -596 -285 0
596 -602 0
601 -602 0
-596 -601 602 0
177 -603 0
69 -603 0
-177 -69 603 0
-602 600 0
-603 600 0
602 603 -600 0
70 178 -605 0
-70 178 605 0
70 -178 605 0
-70 -178 -605 0
605 600 -286 0
-605 600 286 0
605 -600 286 0
-605 -600 -286 0
600 -606 0
605 -606 0
-600 -605 606 0
178 -607 0
70 -607 0
-178 -70 607 0
-606 604 0
-607 604 0
606 607 -604 0
71 179 -609 0
-71 179 609 0
71 -179 609 0
-71 -179 -609 0
609 604 -287 0
-609 604 287 0
609 -604 287 0
-609 -604 -287 0
604 -610 0
609 -610 0
-604 -609 610 0
179 -611 0
71 -611 0
-179 -71 611 0
-610 608 0
-611 608 0
610 611 -608 0
72 180 -613 0
-72 180 613 0
72 -180 613 0
-72 -180 -613 0
613 608 -288 0
-613 608 288 0
613 -608 288 0
-613 -608 -288 0
608 -614 0
613 -614 0
-608 -613 614 0
180 -615 0
72 -615 0
-180 -72 615 0
-614 612 0
-615 612 0
614 615 -612 0
73 181 -617 0
-73 181 617 0
73 -181 617 0
-73 -181 -617 0
617 612 -289 0
-617 612 289 0
617 -612 289 0
-617 -612 -289 0
612 -618 0
617 -618 0
-612 -617 618 0
181 -619 0
73 -619 0
-181 -73 619 0
-618 616 0
-619 616 0
618 619 -616 0
74 182 -621 0
-74 182 621 0
74 -182 621 0
-74 -182 -621 0
621 616 -290 0
-621 616 290 0
621 -616 290 0
-621 -616 -290 0
616 -622 0
621 -622 0
-616 -621 622 0
182 -623 0
74 -623 0
-182 -74 623 0
-622 620 0
-623 620 0
622 623 -620 0
75 183 -625 0
-75 183 625 0
75 -183 625 0
-75 -183 -625 0
625 620 -291 0
-625 620 291 0
625 -620 291 0
-625 -620 -291 0
620 -626 0
625 -626 0
-620 -625 626 0
183 -627 0
75 -627 0
-183 -75 627 0
-626 624 0
-627 624 0
626 627 -624 0
76 184 -629 0
-76 184 629 0
76 -184 629 0
-76 -184 -629 0
629 624 -292 0
-629 624 292 0
629 -624 292 0
-629 -624 -292 0
624 -630 0
629 -630 0
-624 -629 630 0
184 -631 0
76 -631 0
-184 -76 631 0
-630 628 0
-631 628 0
630 631 -628 0
77 185 -633 0
-77 185 633 0
77 -185 633 0
-77 -185 -633 0
633 628 -293 0
-633 628 293 0
633 -628 293 0
-633 -628 -293 0
628 -634 0
633 -634 0
-628 -633 634 0
185 -635 0
77 -635 0
-185 -77 635 0
-634 632 0
-635 632 0
634 635 -632 0
78 186 -637 0
-78 186 637 0
78 -186 637 0
-78 -186 -637 0
637 632 -294 0
-637 632 294 0
637 -632 294 0
-637 -632 -294 0
632 -638 0
637 -638 0
-632 -637 638 0
186 -639 0
78 -639 0
-186 -78 639 0
-638 636 0
-639 636 0
638 639 -636 0
79 187 -641 0
-79 187 641 0
79 -187 641 0
-79 -187 -641 0
641 636 -295 0
-641 636 295 0
641 -636 295 0
-641 -636 -295 0
636 -642 0
641 -642 0
-636 -641 642 0
187 -643 0
79 -643 0
-187 -79 643 0
-642 640 0
-643 640 0
642 643 -640 0
80 188 -645 0
-80 188 645 0
80 -188 645 0
-80 -188 -645 0
645 640 -296 0
-645 640 296 0
645 -640 296 0
-645 -640 -296 0
640 -646 0
645 -646 0
-640 -645 646 0
188 -647 0
80 -647 0
-188 -80 647 0
-646 644 0
-647 644 0
646 647 -644 0
81 189 -649 0
-81 189 649 0
81 -189 649 0
-81 -189 -649 0
649 644 -297 0
-649 644 297 0
649 -644 297 0
-649 -644 -297 0
644 -650 0
649 -650 0
-644 -649 650 0
189 -651 0
81 -651 0
-189 -81 651 0
-650 648 0
-651 648 0
650 651 -648 0
82 190 -653 0
-82 190 653 0
82 -190 653 0
-82 -190 -653 0
653 648 -298 0
-653 648 298 0
653 -648 298 0
-653 -648 -298 0
648 -654 0
653 -654 0
-648 -653 654 0
190 -655 0
82 -655 0
-190 -82 655 0
-654 652 0
-655 652 0
654 655 -652 0
83 191 -657 0
-83 191 657 0
83 -191 657 0
-83 -191 -657 0
657 652 -299 0
-657 652 299 0
657 -652 299 0
-657 -652 -299 0
652 -658 0
657 -658 0
-652 -657 658 0
191 -659 0
83 -659 0
-191 -83 659 0
-658 656 0
-659 656 0
658 659 -656 0
84 192 -661 0
-84 192 661 0
84 -192 661 0
-84 -192 -661 0
661 656 -300 0
-661 656 300 0
661 -656 300 0
-661 -656 -300 0
656 -662 0
661 -662 0
-656 -661 662 0
192 -663 0
84 -663 0
-192 -84 663 0
-662 660 0
-663 660 0
662 663 -660 0
85 193 -665 0
-85 193 665 0
85 -193 665 0
-85 -193 -665 0
665 660 -301 0
-665 660 301 0
665 -660 301 0
-665 -660 -301 0
660 -666 0
665 -666 0
-660 -665 666 0
193 -667 0
85 -667 0
-193 -85 667 0
-666 664 0
-667 664 0
666 667 -664 0
86 194 -669 0
-86 194 669 0
86 -194 669 0
-86 -194 -669 0
669 664 -302 0
-669 664 302 0
669 -664 302 0
-669 -664 -302 0
664 -670 0
669 -670 0
-664 -669 670 0
194 -671 0
86 -671 0
-194 -86 671 0
-670 668 0
-671 668 0
670 671 -668 0
87 195 -673 0
-87 195 673 0
87 -195 673 0
-87 -195 -673 0
673 668 -303 0
-673 668 303 0
673 -668 303 0
-673 -668 -303 0
668 -674 0
673 -674 0
-668 -673 674 0
195 -675 0
87 -675 0
-195 -87 675 0
-674 672 0
-675 672 0
674 675 -672 0
88 196 -677 0
-88 196 677 0
88 -196 677 0
-88 -196 -677 0
677 672 -304 0
-677 672 304 0
677 -672 304 0
-677 -672 -304 0
672 -678 0
677 -678 0
-672 -677 678 0
196 -679 0
88 -679 0
-196 -88 679 0
-678 676 0
-679 676 0
678 679 -676 0
89 197 -681 0
-89 197 681 0
89 -197 681 0
-89 -197 -681 0
681 676 -305 0
-681 676 305 0
681 -676 305 0
-681 -676 -305 0
676 -682 0
681 -682 0
-676 -681 682 0
197 -683 0
89 -683 0
-197 -89 683 0
-682 680 0
-683 680 0
682 683 -680 0
90 198 -685 0
-90 198 685 0
90 -198 685 0
-90 -198 -685 0
685 680 -306 0
-685 680 306 0
685 -680 306 0
-685 -680 -306 0
680 -686 0
685 -686 0
-680 -685 686 0
198 -687 0
90 -687 0
-198 -90 687 0
-686 684 0
-687 684 0
686 687 -684 0
91 199 -689 0
-91 199 689 0
91 -199 689 0
-91 -199 -689 0
689 684 -307 0
-689 684 307 0
689 -684 307 0
-689 -684 -307 0
684 -690 0
689 -690 0
-684 -689 690 0
199 -691 0
91 -691 0
-199 -91 691 0
-690 688 0
-691 688 0
690 691 -688 0
92 200 -693 0
-92 200 693 0
92 -200 693 0
-92 -200 -693 0
693 688 -308 0
-693 688 308 0
693 -688 308 0
-693 -688 -308 0
688 -694 0
693 -694 0
-688 -693 694 0
200 -695 0
92 -695 0
-200 -92 695 0
-694 692 0
-695 692 0
694 695 -692 0
93 201 -697 0
-93 201 697 0
93 -201 697 0
-93 -201 -697 0
697 692 -309 0
-697 692 309 0
697 -692 309 0
-697 -692 -309 0
692 -698 0
697 -698 0
-692 -697 698 0
201 -699 0
93 -699 0
-201 -93 699 0
-698 696 0
-699 696 0
698 699 -696 0
94 202 -701 0
-94 202 701 0
94 -202 701 0
-94 -202 -701 0
701 696 -310 0
-701 696 310 0
701 -696 310 0
-701 -696 -310 0
696 -702 0
701 -702 0
-696 -701 702 0
202 -703 0
94 -703 0
-202 -94 703 0
-702 700 0
-703 700 0
702 703 -700 0
95 203 -705 0
-95 203 705 0
95 -203 705 0
-95 -203 -705 0
705 700 -311 0
-705 700 311 0
705 -700 311 0
-705 -700 -311 0
700 -706 0
705 -706 0
-700 -705 706 0
203 -707 0
95 -707 0
-203 -95 707 0
-706 704 0
-707 704 0
706 707 -704 0
96 204 -709 0
-96 204 709 0
96 -204 709 0
-96 -204 -709 0
709 704 -312 0
-709 704 312 0
709 -704 312 0
-709 -704 -312 0
704 -710 0
709 -710 0
-704 -709 710 0
204 -711 0
96 -711 0
-204 -96 711 0
-710 708 0
-711 708 0
710 711 -708 0
97 205 -713 0
-97 205 713 0
97 -205 713 0
-97 -205 -713 0
713 708 -313 0
-713 708 313 0
713 -708 313 0
-713 -708 -313 0
708 -714 0
713 -714 0
-708 -713 714 0
205 -715 0
97 -715 0
-205 -97 715 0
-714 712 0
-715 712 0
714 715 -712 0
98 206 -717 0
-98 206 717 0
98 -206 717 0
-98 -206 -717 0
717 712 -314 0
-717 712 314 0
717 -712 314 0
-717 -712 -314 0
712 -718 0
717 -718 0
-712 -717 718 0
206 -719 0
98 -719 0
-206 -98 719 0
-718 716 0
-719 716 0
718 719 -716 0
99 207 -721 0
-99 207 721 0
99 -207 721 0
-99 -207 -721 0
721 716 -315 0
-721 716 315 0
721 -716 315 0
-721 -716 -315 0
716 -722 0
721 -722 0
-716 -721 722 0
207 -723 0
99 -723 0
-207 -99 723 0
-722 720 0
-723 720 0
722 723 -720 0
100 208 -725 0
-100 208 725 0
100 -208 725 0
-100 -208 -725 0
725 720 -316 0
-725 720 316 0
725 -720 316 0
-725 -720 -316 0
720 -726 0
725 -726 0
-720 -725 726 0
208 -727 0
100 -727 0
-208 -100 727 0
-726 724 0
-727 724 0
726 727 -724 0
101 209 -729 0
-101 209 729 0
101 -209 729 0
-101 -209 -729 0
729 724 -317 0
-729 724 317 0
729 -724 317 0
-729 -724 -317 0
724 -730 0
729 -730 0
-724 -729 730 0
209 -731 0
101 -731 0
-209 -101 731 0
-730 728 0
-731 728 0
730 731 -728 0
102 210 -733 0
-102 210 733 0
102 -210 733 0
-102 -210 -733 0
733 728 -318 0
-733 728 318 0
733 -728 318 0
-733 -728 -318 0
728 -734 0
733 -734 0
-728 -733 734 0
210 -735 0
102 -735 0
-210 -102 735 0
-734 732 0
-735 732 0
734 735 -732 0
103 211 -737 0
-103 211 737 0
103 -211 737 0
-103 -211 -737 0
737 732 -319 0
-737 732 319 0
737 -732 319 0
-737 -732 -319 0
732 -738 0
737 -738 0
-732 -737 738 0
211 -739 0
103 -739 0
-211 -103 739 0
-738 736 0
-739 736 0
738 739 -736 0
104 212 -741 0
-104 212 741 0
104 -212 741 0
-104 -212 -741 0
741 736 -320 0
-741 736 320 0
741 -736 320 0
-741 -736 -320 0
736 -742 0
741 -742 0
-736 -741 742 0
212 -743 0
104 -743 0
-212 -104 743 0
-742 740 0
-743 740 0
742 743 -740 0
105 213 -745 0
-105 213 745 0
105 -213 745 0
-105 -213 -745 0
745 740 -321 0
-745 740 321 0
745 -740 321 0
-745 -740 -321 0
740 -746 0
745 -746 0
-740 -745 746 0
213 -747 0
105 -747 0
-213 -105 747 0
-746 744 0
-747 744 0
746 747 -744 0
106 214 -749 0
-106 214 749 0
106 -214 749 0
-106 -214 -749 0
749 744 -322 0
-749 744 322 0
749 -744 322 0
-749 -744 -322 0
744 -750 0
749 -750 0
-744 -749 750 0
214 -751 0
106 -751 0
-214 -106 751 0
-750 748 0
-751 748 0
750 751 -748 0
107 215 -753 0
-107 215 753 0
107 -215 753 0
-107 -215 -753 0
753 748 -323 0
-753 748 323 0
753 -748 323 0
-753 -748 -323 0
748 -754 0
753 -754 0
-748 -753 754 0
215 -755 0
107 -755 0
-215 -107 755 0
-754 752 0
-755 752 0
754 755 -752 0
108 216 -756 0
-108 216 756 0
108 -216 756 0
-108 -216 -756 0
756 752 -324 0
-756 752 324 0
756 -752 324 0
-756 -752 -324 0
752 -757 0
756 -757 0
-752 -756 757 0
216 -758 0
108 -758 0
-216 -108 758 0
-757 325 0
-758 325 0
757 758 -325 0
